c A SAT instance generated from a 3-CNF formula that had 10 clauses and 5 variables
p cnf 5 10
-3 -5 4 0
4 3 -1 0
1 2 -3 0
-1 -2 5 0
-5 -3 4 0
-4 2 -5 0
4 -5 -1 0
-4 5 -1 0
-4 2 -1 0
3 -2 -5 0
%
0

75 37 71 18 38
